
Value of objective function: 13.00000000

Actual values of the variables:
t1                              1
t2                              1
t3                              1
t4                              1
t5                              0
t6                              0
t7                              1
t8                              0
t9                              1
t10                             0
t11                             0
t12                             0
t13                             0
t14                             0
t15                             0
t16                             0
t17                             0
t18                             0
t19                             0
t20                             1
t21                             0
t22                             1
t23                             1
t24                             1
t25                             1
t26                             0
t27                             0
t28                             0
t29                             0
t30                             0
t31                             1
t32                             0
t33                             0
t34                             0
t35                             1
t36                             0
t37                             0
t38                             0
